(set-logic QF_S)
(declare-fun var0 () String)
(declare-fun var1 () Int)
(declare-fun var2 () Int)
(declare-fun var3 () String)
(declare-fun var4 () String)
(declare-fun var5 () String)
(declare-fun var6 () Bool)
(declare-fun var7 () Int)
(declare-fun var8 () Int)
(assert (str.suffixof (str.substr var0 var1 var2) (str.replace var3 var4 var5)))
(assert (not var6))
(assert (not (str.prefixof var3 var5)))
(assert (>= var7 var8))
(check-sat)